NAME : ftv38Preorder.993.tour
COMMENT : Length = 993
COMMENT : Found by LKH [Keld Helsgaun] Sun Apr 19 19:25:40 2020
TYPE : TOUR
DIMENSION : 39
TOUR_SECTION
1
17
16
7
8
6
9
38
10
11
13
12
15
18
19
20
29
28
21
14
37
22
23
24
25
26
27
31
32
33
35
39
3
5
36
34
30
2
4
-1
EOF
